35096
000011100010000101101101111011
18 6 21 18 21 4 21 26 18 17 4 4 10 23 28 18 23 20 17 28 18 24 5 24 20 25 24 28 4 21 6 26 4 21 24 6 20 10 24 21 18 26 6 29 23 26 20 21 20 10 24 15 21 21 20 28 6 26 18 25 29 5 18 20 20 6 23 10 6 25 18 28 29 10 23 23 20 17 20 21 10 28 26 25 29 10 4 23 24 25 28 6 25 25 24 20 28 28 17 6 10 21 25 25 26 17 4 24 21 10 26 4 24 6 6 20 28 25 17 20 26 25 28 26 17 21 21 6 26 17 28 21 25 20 5 20 5 20 28 23 25 18 6 25 25 5 24 21 18 25 5 10 23 17 20 18 5 21 20 10 10 17 10 15 5 18 5 4 5 21 5 20 17 26 26 21 17 20 29 10 23 21 24 28 17 20 6 10 24 21 21 21 26 28 25 6 18 21 10 17 